maximize
 0.0x00 + 6.0x01 + 0.0x02 + 6.0x03 + 0.0x10 + 0.0x11 + 0.0x12 + 8.0x13 + 0.0x20 + 0.0x21 + 5.0x22 + 5.0x23
subject to
c0:  0.0x00 + 1.0x01 + 0.0x02 + 1.0x03 + 0.0x10 + 1.0x11 + 0.0x12 + 1.0x13 + 0.0x20 + 1.0x21 + 0.0x22 + 1.0x23<=  1.0 
c1:  0.0x00 + 0.0x01 + 1.0x02 + 1.0x03 + 0.0x10 + 0.0x11 + 1.0x12 + 1.0x13 + 0.0x20 + 0.0x21 + 1.0x22 + 1.0x23<=  1.0 

binary
 x00  x01  x02  x03  x10  x11  x12  x13  x20  x21  x22  x23 
end